NAME : morphed18-2-10
COMMENT : Generated using the function morphInstances from the R-package netgen (Bossek,2015) - Number of clusters: 2 Alpha: 0.5
TYPE : TSP
DIMENSION : 18
EDGE_WEIGHT_TYPE : EUC_2D
NODE_COORD_SECTION
1 52.1170542532 32.0053369596
2 48.7593420386 70.3848415211
3 52.5076678308 74.0865528585
4 69.2096719884 61.6434737189
5 39.1582314327 63.0739875024
6 36.5300925745 29.7495269396
7 40.3623744931 32.4588677485
8 45.4858449133 63.319104166
9 63.7842606053 75.4135424494
10 44.7048614096 23.1876086081
11 66.8227579275 75.5373740367
12 56.3083677701 32.3260128659
13 28.3117024061 42.6501030332
14 54.9507401455 15.0604614854
15 35.0813655026 15.2029986138
16 55.5849909702 76.3522318799
17 26.5518912396 30.3982350911
18 47.1109905065 64.547161239
EOF
